p cnf 50 65
-15 -12 14 0 
-33 8 0 
-20 -19 0 
-49 -48 0 
12 13 0 
-20 -10 0 
-31 -10 0 
-24 -21 0 
-9 -7 0 
-41 -31 0 
-10 29 0 
-22 -21 0 
-39 -31 0 
-47 -10 0 
-10 32 0 
-37 -31 0 
-26 -25 0 
-49 -25 0 
-13 -10 -6 0 
25 48 49 0 
-4 1 0 
-7 8 0 
-10 -9 0 
-9 17 0 
-2 1 0 
-28 -9 0 
-31 36 0 
-27 -10 0 
-35 -34 0 
-35 -31 0 
-46 -28 0 
-11 13 0 
-24 -22 0 
-12 -10 30 0 
-42 -31 0 
-19 18 0 
-13 -10 30 0 
-13 -12 0 
-44 -31 0 
-13 -9 0 
-10 -7 0 
-28 -10 0 
-50 16 0 
-15 12 0 
-40 -31 0 
-23 -21 0 
-38 -31 0 
-25 48 49 0 
-13 -11 14 0 
-12 -10 29 0 
-5 1 0 
-24 -23 0 
-3 1 0 
-20 -9 0 
-13 -10 29 0 
-10 30 0 
-15 -13 0 
-47 19 21 22 23 0 
-12 -10 -6 0 
-12 -11 0 
-45 -31 0 
-9 12 0 
-43 -31 0 
-23 -22 0 
-27 -9 0 
